p cnf 41 243
1 -29 0 
29 -1 14 15 16 18 22 23 25 26 27 28 0 
1 -28 2 3 4 5 6 7 8 0 
1 -27 2 3 4 5 6 7 8 0 
1 -26 2 3 4 5 6 7 8 0 
1 -25 3 0 
1 -18 2 3 4 5 6 7 8 0 
1 -16 2 3 4 5 6 7 8 0 
1 -15 2 3 4 5 6 7 8 0 
1 -14 2 3 4 5 6 7 8 0 
24 -8 14 15 16 17 18 19 20 21 22 23 27 26 28 0 
8 -21 2 5 6 7 4 0 
24 -7 14 15 16 17 18 19 20 21 22 23 27 26 28 0 
24 -6 14 15 16 17 18 19 20 21 22 23 27 26 28 0 
10 -13 9 0 
10 -12 9 0 
10 -11 9 0 
24 -4 14 15 16 17 18 19 20 21 22 23 27 26 28 0 
28 -3 14 15 16 17 18 19 20 22 23 24 25 26 27 0 
3 -24 5 6 7 4 8 2 0 
3 -20 5 6 7 4 8 2 0 
3 -19 5 6 7 4 8 2 0 
3 -17 5 6 7 4 8 2 0 
24 -2 14 15 16 17 18 19 20 21 22 23 27 26 28 0 
2 -23 3 4 5 6 7 8 0 
2 -22 3 4 5 6 7 8 0 
-2 -3 0 
-2 -4 0 
-2 -5 0 
-2 -6 0 
-2 -7 0 
-3 -4 0 
-2 -8 0 
-2 -9 0 
-3 -5 0 
-2 -10 0 
-2 -11 0 
-3 -6 0 
-2 -12 0 
-2 -13 0 
-3 -7 0 
-4 -5 0 
-3 -8 0 
-4 -6 0 
-3 -9 0 
-3 -10 0 
-4 -7 0 
-3 -11 0 
-5 -6 0 
-4 -8 0 
-3 -12 0 
-2 -25 0 
-3 -13 0 
-4 -9 0 
-5 -7 0 
-2 -28 0 
-4 -10 0 
-2 -29 0 
-5 -8 0 
-4 -11 0 
-6 -7 0 
-17 -3 0 
-5 -9 0 
-4 -12 0 
-6 -8 0 
-4 -13 0 
-5 -10 0 
-21 -3 0 
-5 -11 0 
-6 -9 0 
-2 -1 0 
1 2 3 4 5 6 7 8 9 10 0 
-7 -8 0 
-5 -12 0 
-6 -10 0 
-5 -13 0 
-7 -9 0 
-6 -11 0 
-7 -10 0 
-6 -12 0 
-3 -29 0 
-8 -9 0 
-6 -13 0 
-7 -11 0 
-8 -10 0 
-7 -12 0 
-8 -11 0 
-4 -25 0 
-7 -13 0 
-9 -10 0 
-8 -12 0 
-4 -28 0 
-3 -1 0 
1 3 -28 0 
-4 -29 0 
-8 -13 0 
-5 -25 0 
-9 -14 0 
-5 -28 0 
-11 -12 0 
-5 -29 0 
-15 -9 0 
-10 -14 0 
-6 -25 0 
-9 -16 0 
-11 -13 0 
-4 -1 0 
-15 -10 0 
-9 -17 0 
-11 -14 0 
-12 -13 0 
-6 -28 0 
-10 -16 0 
-18 -9 0 
-6 -29 0 
-11 -15 0 
-12 -14 0 
-7 -25 0 
-9 -19 0 
-10 -17 0 
-11 -16 0 
-9 -20 0 
-18 -10 0 
-12 -15 0 
-13 -14 0 
-9 -21 0 
-11 -17 0 
-7 -28 0 
-10 -19 0 
-5 -1 0 
-12 -16 0 
-7 -29 0 
-8 -25 0 
-9 -22 0 
-13 -15 0 
-11 -18 0 
-10 -20 0 
-23 -9 0 
-12 -17 0 
-10 -21 0 
-11 -19 0 
-13 -16 0 
-9 -24 0 
-12 -18 0 
-8 -28 0 
-10 -22 0 
-11 -20 0 
-9 -25 0 
-13 -17 0 
-14 -16 0 
-8 -29 0 
-23 -10 0 
-12 -19 0 
-9 -26 0 
-11 -21 0 
-13 -18 0 
-6 -1 0 
-10 -24 0 
-9 -27 0 
-12 -20 0 
-11 -22 0 
-15 -16 0 
-9 -28 0 
-10 -25 0 
-13 -19 0 
-11 -23 0 
-12 -21 0 
-9 -29 0 
-10 -26 0 
-13 -20 0 
-11 -24 0 
-12 -22 0 
-10 -27 0 
-11 -25 0 
-13 -21 0 
-12 -23 0 
-10 -28 0 
-7 -1 0 
-11 -26 0 
-10 -29 0 
-13 -22 0 
-12 -24 0 
-16 -18 0 
-11 -27 0 
-12 -25 0 
-13 -23 0 
-11 -28 0 
-12 -26 0 
-13 -24 0 
-12 -27 0 
-8 -1 0 
-13 -25 0 
-12 -28 0 
-13 -26 0 
-13 -27 0 
-13 -28 0 
-9 -1 0 
-19 -20 0 
-10 -1 0 
-17 -25 0 
-11 -1 0 
-28 -17 0 
-25 -19 0 
-17 -29 0 
-12 -1 0 
-25 -20 0 
-13 -1 0 
-25 -24 0 
-25 -26 0 
-25 -27 0 
-25 -28 0 
-17 -1 0 
-1 -19 0 
-1 -20 0 
-21 -1 0 
30 31 32 33 34 35 36 37 38 39 40 41 9 10 0 
-31 -32 0 
-1 -24 0 
-30 -34 0 
-31 -34 0 
-33 -32 0 
-31 -35 0 
-34 -32 0 
-31 -37 0 
-34 -35 0 
-39 -31 0 
-30 -41 0 
-40 -31 0 
-31 -41 0 
-40 -32 0 
-41 -32 0 
-39 -34 0 
-36 -37 0 
-33 -41 0 
-34 -40 0 
-34 -41 0 
-35 -41 0 
-36 -41 0 
-37 -41 0 
-38 -41 0 
-39 -40 0 
-39 -41 0 
-40 -41 0 
c p weight 1 0.512351 0
c p weight -1 0.487649 0
c p weight 2 0.498052 0
c p weight -2 0.501948 0
c p weight 3 0.439999 0
c p weight -3 0.560001 0
c p weight 4 0.530019 0
c p weight -4 0.469981 0
c p weight 5 0.516822 0
c p weight -5 0.483178 0
c p weight 6 0.578733 0
c p weight -6 0.421267 0
c p weight 7 0.596826 0
c p weight -7 0.403174 0
c p weight 8 0.531643 0
c p weight -8 0.468357 0
c p weight 9 0.465444 0
c p weight -9 0.534556 0
c p weight 10 0.48148 0
c p weight -10 0.518520 0
c p weight 11 0.525042 0
c p weight -11 0.474958 0
c p weight 12 0.453079 0
c p weight -12 0.546921 0
c p weight 13 0.524588 0
c p weight -13 0.475412 0
c p weight 14 0.518997 0
c p weight -14 0.481003 0
c p weight 15 0.49346 0
c p weight -15 0.506540 0
c p weight 16 0.442496 0
c p weight -16 0.557504 0
c p weight 17 0.424981 0
c p weight -17 0.575019 0
c p weight 18 0.438117 0
c p weight -18 0.561883 0
c p weight 19 0.5182 0
c p weight -19 0.481800 0
c p weight 20 0.543567 0
c p weight -20 0.456433 0
c p weight 21 0.475085 0
c p weight -21 0.524915 0
c p weight 22 0.460642 0
c p weight -22 0.539358 0
c p weight 23 0.566919 0
c p weight -23 0.433081 0
c p weight 24 0.435899 0
c p weight -24 0.564101 0
c p weight 25 0.457045 0
c p weight -25 0.542955 0
c p weight 26 0.549332 0
c p weight -26 0.450668 0
c p weight 27 0.48713 0
c p weight -27 0.512870 0
c p weight 28 0.539123 0
c p weight -28 0.460877 0
c p weight 29 0.458733 0
c p weight -29 0.541267 0
c p weight 30 0.494617 0
c p weight -30 0.505383 0
c p weight 31 0.498537 0
c p weight -31 0.501463 0
c p weight 32 0.597313 0
c p weight -32 0.402687 0
c p weight 33 0.51121 0
c p weight -33 0.488790 0
c p weight 34 0.490613 0
c p weight -34 0.509387 0
c p weight 35 0.582322 0
c p weight -35 0.417678 0
c p weight 36 0.512132 0
c p weight -36 0.487868 0
c p weight 37 0.491028 0
c p weight -37 0.508972 0
c p weight 38 0.573151 0
c p weight -38 0.426849 0
c p weight 39 0.414214 0
c p weight -39 0.585786 0
c p weight 40 0.524937 0
c p weight -40 0.475063 0
c p weight 41 0.558004 0
c p weight -41 0.441996 0
